(declare-const |phi_tmp:13:15:41| Int)
(declare-const |tmp':45| Int)
(declare-const |i':42| Int)
(declare-const |k':44| Int)
(declare-const |K:54| Int)
(declare-const |j':43| Int)
(declare-const |phi_tmp:9:12:14:40| Int)
(declare-const tmp Int)
(assert (and (or (not (and (<= (- |K:54|) 0) (<= |K:54| 0)))
                   (= (+ |j':43| (* -2 |K:54|)) 0))
               (or (not (<= (+ (- |K:54|) 1) 0))
                     (= (+ |j':43| (* -2 |K:54|)) 0))
               (or (not (and (<= (- |K:54|) 0) (<= |K:54| 0)))
                     (= (+ (- tmp) |tmp':45|) 0))
               (or (not (<= (+ (- |K:54|) 1) 0)) (= (+ |tmp':45| -1) 0))
               (or (not (and (<= (- |K:54|) 0) (<= |K:54| 0)))
                     (= (+ |i':42| (- |K:54|)) 0))
               (or (not (<= (+ (- |K:54|) 1) 0)) (= (+ |i':42| (- |K:54|)) 0))
               (or (not (and (<= (- |K:54|) 0) (<= |K:54| 0)))
                     (= (+ |k':44| (* -3 |K:54|)) 0))
               (or (not (<= (+ (- |K:54|) 1) 0))
                     (= (+ |k':44| (* -3 |K:54|)) 0))
               (or (and (= |K:54| 0) (= (+ tmp (- |tmp':45|)) 0)
                          (= (- |k':44|) 0) (= (- |j':43|) 0)
                          (= (- |i':42|) 0))
                     (and (<= (+ (- |K:54|) 1) 0)
                            (= (+ (* 2 |k':44|) (* -3 |j':43|)) 0)
                            (= (+ (* 2 |i':42|) (- |j':43|)) 0)
                            (= (+ |tmp':45| -1) 0)
                            (<= (+ |j':43| -178956970) 0)
                            (<= (+ (- |j':43|) 2) 0))) (<= (- |K:54|) 0)
               (<= (- |j':43|) 0) (<= (- |i':42|) 0) (<= (- |k':44|) 0)
               (= (+ (* -2 |k':44|) (* 3 |j':43|)) 0)
               (= (+ (- |k':44|) (* 3 |i':42|)) 0)
               (< (+ |k':44| -268435455) 0)
               (or (and (= (+ |k':44| (* -3 |i':42|)) 0)
                          (or (and (not (= (+ (* -2 |i':42|) |j':43|) 0))
                                     (= (- |phi_tmp:9:12:14:40|) 0))
                                (and (= (+ (* -2 |i':42|) |j':43|) 0)
                                       (= (+ (- |phi_tmp:9:12:14:40|) 1) 0)))
                          (= (+ (- |phi_tmp:13:15:41|) |phi_tmp:9:12:14:40|) 0))
                     (and (not (= (+ |k':44| (* -3 |i':42|)) 0))
                            (= (- |phi_tmp:13:15:41|) 0)))
               (= |phi_tmp:13:15:41| 0)))
(check-sat)
